NAME: instance_2052
TYPE: TSP
DIMENSION: 20
EDGE_WEIGHT_TYPE: EUC_2D
NODE_COORD_SECTION
0 53.26 33.72
1 33.82 30.26
2 52.92 18.94
3 5.55 95.77
4 9.36 21.52
5 29.00 40.69
6 92.37 88.38
7 94.41 17.57
8 59.81 27.42
9 60.43 24.25
10 11.28 17.16
11 4.05 36.46
12 57.23 88.55
13 96.38 96.68
14 27.34 31.05
15 66.61 40.16
16 90.99 8.32
17 43.86 78.59
18 41.23 82.90
19 55.60 3.03
EOF
